NAME : portcgen-31-5
COMMENT : portcgen N=31, seed=5
TYPE : TSP
DIMENSION : 31
EDGE_WEIGHT_TYPE : EUC_2D
NODE_COORD_SECTION
1 130914 14944
2 55536 -14226
3 26466 40033
4 -193675 251581
5 -205686 27073
6 16534 -32236
7 122237 156108
8 165920 177284
9 29349 -191704
10 183823 8145
11 19553 -130881
12 104100 161584
13 -86074 298721
14 -42004 144996
15 -60909 66372
16 341959 226538
17 -181508 163676
18 -75863 299722
19 254168 35459
20 62778 55572
21 -69296 147049
22 38065 -18879
23 83761 217502
24 -146301 -63186
25 -113146 -87886
26 161467 304539
27 -140099 39233
28 102715 315385
29 -167023 -22698
30 -77997 203621
31 -225352 -161477
